HUN,8,6,414
3,15,1,4,2,28,5,26,4,6,0,6
2,19,5,14,0,26,4,2,1,16,3,7
5,11,3,17,2,23,1,8,0,16,4,17
1,13,4,19,3,24,5,9,2,17,0,11
5,24,0,30,3,2,1,26,2,18,4,25
1,6,5,30,3,9,0,9,4,20,2,16
2,28,3,25,0,14,4,18,1,29,5,28
5,28,4,5,2,4,1,21,3,20,0,26
